;; translated from ./ctigar/fig2.c.vmt
;; original benchmark available at: https://es-static.fbk.eu/people/griggio/ic3ia/index.html
;; author: Alberto Griggio <griggio@fbk.eu>
(set-logic HORN)
(declare-fun state (Bool Bool Bool Bool Bool Int Int Int Int) Bool)
(assert (forall ((|.s.2| Bool) (|.s.3| Bool) (|.s.0| Bool) (|.s.1| Bool) (|.s.0.next| Bool) (|.s.1.next| Bool) (|.s.2.next| Bool) (|.s.3.next| Bool) (|.s.4.next| Bool) (|main.w.next| Int) (|main.w| Int) (|main.x.next| Int) (|main.x| Int) (|main.y.next| Int) (|main.y| Int) (|main.z.next| Int) (|main.z| Int) (|.inputVar.0| Int) (|.s.4| Bool)) (=> (let ((.def_20 (not .s.4)))
(let ((.def_17 (not .s.3)))
(let ((.def_14 (not .s.2)))
(let ((.def_10 (not .s.1)))
(let ((.def_12 (and .def_10 .s.0)))
(let ((.def_15 (and .def_12 .def_14)))
(let ((.def_18 (and .def_15 .def_17)))
(let ((.def_21 (and .def_18 .def_20)))
.def_21)))))))) (state |.s.1| |.s.0| |.s.2| |.s.3| |.s.4| |main.w| |main.x| |main.y| |main.z|))))
(assert (forall ((|.s.2| Bool) (|.s.3| Bool) (|.s.0| Bool) (|.s.1| Bool) (|.s.0.next| Bool) (|.s.1.next| Bool) (|.s.2.next| Bool) (|.s.3.next| Bool) (|.s.4.next| Bool) (|main.w.next| Int) (|main.w| Int) (|main.x.next| Int) (|main.x| Int) (|main.y.next| Int) (|main.y| Int) (|main.z.next| Int) (|main.z| Int) (|.inputVar.0| Int) (|.s.4| Bool)) (=> (and (state |.s.1| |.s.0| |.s.2| |.s.3| |.s.4| |main.w| |main.x| |main.y| |main.z|) (let ((.def_54 (not .s.0)))
(let ((.def_10 (not .s.1)))
(let ((.def_86 (and .def_10 .def_54)))
(let ((.def_14 (not .s.2)))
(let ((.def_149 (and .def_14 .def_86)))
(let ((.def_17 (not .s.3)))
(let ((.def_150 (and .def_17 .def_149)))
(let ((.def_20 (not .s.4)))
(let ((.def_360 (and .def_20 .def_150)))
(let ((.def_361 (not .def_360)))
(let ((.def_63 (not .s.0.next)))
(let ((.def_62 (not .s.1.next)))
(let ((.def_64 (and .def_62 .def_63)))
(let ((.def_61 (not .s.2.next)))
(let ((.def_65 (and .def_61 .def_64)))
(let ((.def_33 (not .s.3.next)))
(let ((.def_66 (and .def_33 .def_65)))
(let ((.def_60 (not .s.4.next)))
(let ((.def_67 (and .def_60 .def_66)))
(let ((.def_39 (= main.w main.w.next)))
(let ((.def_68 (and .def_39 .def_67)))
(let ((.def_43 (= main.x main.x.next)))
(let ((.def_69 (and .def_43 .def_68)))
(let ((.def_47 (= main.y main.y.next)))
(let ((.def_70 (and .def_47 .def_69)))
(let ((.def_51 (= main.z main.z.next)))
(let ((.def_71 (and .def_51 .def_70)))
(let ((.def_362 (or .def_71 .def_361)))
(let ((.def_354 (= main.z.next 0)))
(let ((.def_77 (and .s.1.next .def_63)))
(let ((.def_141 (and .def_61 .def_77)))
(let ((.def_142 (and .def_33 .def_141)))
(let ((.def_291 (and .def_60 .def_142)))
(let ((.def_355 (and .def_291 .def_354)))
(let ((.def_353 (= main.y.next 0)))
(let ((.def_356 (and .def_353 .def_355)))
(let ((.def_352 (= main.x.next 0)))
(let ((.def_357 (and .def_352 .def_356)))
(let ((.def_351 (= main.w.next 0)))
(let ((.def_358 (and .def_351 .def_357)))
(let ((.def_12 (and .def_10 .s.0)))
(let ((.def_15 (and .def_12 .def_14)))
(let ((.def_18 (and .def_15 .def_17)))
(let ((.def_21 (and .def_18 .def_20)))
(let ((.def_350 (not .def_21)))
(let ((.def_359 (or .def_350 .def_358)))
(let ((.def_363 (and .def_359 .def_362)))
(let ((.def_29 (and .s.0.next .s.1.next)))
(let ((.def_129 (and .def_29 .def_61)))
(let ((.def_130 (and .def_33 .def_129)))
(let ((.def_344 (and .def_60 .def_130)))
(let ((.def_345 (and .def_39 .def_344)))
(let ((.def_346 (and .def_43 .def_345)))
(let ((.def_347 (and .def_47 .def_346)))
(let ((.def_348 (and .def_51 .def_347)))
(let ((.def_55 (and .s.1 .def_54)))
(let ((.def_125 (and .def_14 .def_55)))
(let ((.def_126 (and .def_17 .def_125)))
(let ((.def_333 (and .def_20 .def_126)))
(let ((.def_269 (= .inputVar.0 0)))
(let ((.def_342 (and .def_269 .def_333)))
(let ((.def_343 (not .def_342)))
(let ((.def_349 (or .def_343 .def_348)))
(let ((.def_364 (and .def_349 .def_363)))
(let ((.def_215 (and .s.2.next .def_64)))
(let ((.def_326 (and .def_33 .def_215)))
(let ((.def_336 (and .s.4.next .def_326)))
(let ((.def_337 (and .def_39 .def_336)))
(let ((.def_338 (and .def_43 .def_337)))
(let ((.def_339 (and .def_47 .def_338)))
(let ((.def_340 (and .def_51 .def_339)))
(let ((.def_270 (not .def_269)))
(let ((.def_334 (and .def_270 .def_333)))
(let ((.def_335 (not .def_334)))
(let ((.def_341 (or .def_335 .def_340)))
(let ((.def_365 (and .def_341 .def_364)))
(let ((.def_327 (and .def_60 .def_326)))
(let ((.def_328 (and .def_39 .def_327)))
(let ((.def_329 (and .def_43 .def_328)))
(let ((.def_330 (and .def_47 .def_329)))
(let ((.def_331 (and .def_51 .def_330)))
(let ((.def_22 (and .s.1 .s.0)))
(let ((.def_114 (and .def_14 .def_22)))
(let ((.def_115 (and .def_17 .def_114)))
(let ((.def_315 (and .def_20 .def_115)))
(let ((.def_324 (and .def_269 .def_315)))
(let ((.def_325 (not .def_324)))
(let ((.def_332 (or .def_325 .def_331)))
(let ((.def_366 (and .def_332 .def_365)))
(let ((.def_31 (and .def_29 .s.2.next)))
(let ((.def_34 (and .def_31 .def_33)))
(let ((.def_318 (and .def_34 .def_60)))
(let ((.def_319 (and .def_39 .def_318)))
(let ((.def_320 (and .def_43 .def_319)))
(let ((.def_321 (and .def_47 .def_320)))
(let ((.def_322 (and .def_51 .def_321)))
(let ((.def_316 (and .def_270 .def_315)))
(let ((.def_317 (not .def_316)))
(let ((.def_323 (or .def_317 .def_322)))
(let ((.def_367 (and .def_323 .def_366)))
(let ((.def_101 (and .s.0.next .def_62)))
(let ((.def_102 (and .s.2.next .def_101)))
(let ((.def_103 (and .def_33 .def_102)))
(let ((.def_309 (and .def_60 .def_103)))
(let ((.def_242 (* (- 1) main.x.next)))
(let ((.def_243 (+ main.x .def_242)))
(let ((.def_244 (= .def_243 (- 1))))
(let ((.def_310 (and .def_244 .def_309)))
(let ((.def_311 (and .def_39 .def_310)))
(let ((.def_312 (and .def_47 .def_311)))
(let ((.def_313 (and .def_51 .def_312)))
(let ((.def_87 (and .s.2 .def_86)))
(let ((.def_88 (and .def_17 .def_87)))
(let ((.def_307 (and .def_20 .def_88)))
(let ((.def_308 (not .def_307)))
(let ((.def_314 (or .def_308 .def_313)))
(let ((.def_368 (and .def_314 .def_367)))
(let ((.def_226 (* (- 1) main.y.next)))
(let ((.def_227 (+ main.y .def_226)))
(let ((.def_301 (= .def_227 (- 2))))
(let ((.def_78 (and .s.2.next .def_77)))
(let ((.def_79 (and .def_33 .def_78)))
(let ((.def_184 (and .def_60 .def_79)))
(let ((.def_302 (and .def_184 .def_301)))
(let ((.def_303 (and .def_39 .def_302)))
(let ((.def_304 (and .def_43 .def_303)))
(let ((.def_305 (and .def_51 .def_304)))
(let ((.def_73 (and .def_12 .s.2)))
(let ((.def_74 (and .def_17 .def_73)))
(let ((.def_297 (and .def_20 .def_74)))
(let ((.def_298 (not .def_297)))
(let ((.def_306 (or .def_298 .def_305)))
(let ((.def_369 (and .def_306 .def_368)))
(let ((.def_292 (and .def_39 .def_291)))
(let ((.def_293 (and .def_43 .def_292)))
(let ((.def_294 (and .def_47 .def_293)))
(let ((.def_295 (and .def_51 .def_294)))
(let ((.def_56 (and .s.2 .def_55)))
(let ((.def_57 (and .def_17 .def_56)))
(let ((.def_289 (and .def_20 .def_57)))
(let ((.def_290 (not .def_289)))
(let ((.def_296 (or .def_290 .def_295)))
(let ((.def_370 (and .def_296 .def_369)))
(let ((.def_282 (and .s.3.next .def_65)))
(let ((.def_283 (and .def_60 .def_282)))
(let ((.def_284 (and .def_39 .def_283)))
(let ((.def_285 (and .def_43 .def_284)))
(let ((.def_286 (and .def_47 .def_285)))
(let ((.def_287 (and .def_51 .def_286)))
(let ((.def_23 (and .s.2 .def_22)))
(let ((.def_24 (and .def_17 .def_23)))
(let ((.def_267 (and .def_20 .def_24)))
(let ((.def_280 (and .def_267 .def_269)))
(let ((.def_281 (not .def_280)))
(let ((.def_288 (or .def_281 .def_287)))
(let ((.def_371 (and .def_288 .def_370)))
(let ((.def_273 (and .def_31 .s.3.next)))
(let ((.def_274 (and .def_60 .def_273)))
(let ((.def_275 (and .def_39 .def_274)))
(let ((.def_276 (and .def_43 .def_275)))
(let ((.def_277 (and .def_47 .def_276)))
(let ((.def_278 (and .def_51 .def_277)))
(let ((.def_271 (and .def_267 .def_270)))
(let ((.def_272 (not .def_271)))
(let ((.def_279 (or .def_272 .def_278)))
(let ((.def_372 (and .def_279 .def_371)))
(let ((.def_155 (and .def_61 .def_101)))
(let ((.def_260 (and .s.3.next .def_155)))
(let ((.def_261 (and .def_60 .def_260)))
(let ((.def_262 (and .def_39 .def_261)))
(let ((.def_263 (and .def_43 .def_262)))
(let ((.def_264 (and .def_47 .def_263)))
(let ((.def_265 (and .def_51 .def_264)))
(let ((.def_253 (<= 4 main.x)))
(let ((.def_250 (and .s.3 .def_149)))
(let ((.def_251 (and .def_20 .def_250)))
(let ((.def_258 (and .def_251 .def_253)))
(let ((.def_259 (not .def_258)))
(let ((.def_266 (or .def_259 .def_265)))
(let ((.def_373 (and .def_266 .def_372)))
(let ((.def_254 (not .def_253)))
(let ((.def_255 (and .def_251 .def_254)))
(let ((.def_256 (not .def_255)))
(let ((.def_118 (and .s.3.next .def_78)))
(let ((.def_119 (and .def_60 .def_118)))
(let ((.def_120 (and .def_39 .def_119)))
(let ((.def_121 (and .def_43 .def_120)))
(let ((.def_122 (and .def_47 .def_121)))
(let ((.def_123 (and .def_51 .def_122)))
(let ((.def_257 (or .def_123 .def_256)))
(let ((.def_374 (and .def_257 .def_373)))
(let ((.def_240 (and .s.3.next .def_141)))
(let ((.def_241 (and .def_60 .def_240)))
(let ((.def_245 (and .def_241 .def_244)))
(let ((.def_246 (and .def_39 .def_245)))
(let ((.def_247 (and .def_47 .def_246)))
(let ((.def_248 (and .def_51 .def_247)))
(let ((.def_237 (and .def_15 .s.3)))
(let ((.def_238 (and .def_20 .def_237)))
(let ((.def_239 (not .def_238)))
(let ((.def_249 (or .def_239 .def_248)))
(let ((.def_375 (and .def_249 .def_374)))
(let ((.def_230 (and .s.3.next .def_129)))
(let ((.def_231 (and .def_60 .def_230)))
(let ((.def_229 (= .def_227 (- 3))))
(let ((.def_232 (and .def_229 .def_231)))
(let ((.def_233 (and .def_39 .def_232)))
(let ((.def_234 (and .def_43 .def_233)))
(let ((.def_235 (and .def_51 .def_234)))
(let ((.def_223 (and .s.3 .def_125)))
(let ((.def_224 (and .def_20 .def_223)))
(let ((.def_225 (not .def_224)))
(let ((.def_236 (or .def_225 .def_235)))
(let ((.def_376 (and .def_236 .def_375)))
(let ((.def_216 (and .s.3.next .def_215)))
(let ((.def_217 (and .def_60 .def_216)))
(let ((.def_212 (* (- 1) main.z.next)))
(let ((.def_213 (+ main.z .def_212)))
(let ((.def_214 (= .def_213 (- 10))))
(let ((.def_218 (and .def_214 .def_217)))
(let ((.def_219 (and .def_39 .def_218)))
(let ((.def_220 (and .def_43 .def_219)))
(let ((.def_221 (and .def_47 .def_220)))
(let ((.def_209 (and .s.3 .def_114)))
(let ((.def_210 (and .def_20 .def_209)))
(let ((.def_211 (not .def_210)))
(let ((.def_222 (or .def_211 .def_221)))
(let ((.def_377 (and .def_222 .def_376)))
(let ((.def_202 (and .s.3.next .def_102)))
(let ((.def_203 (and .def_60 .def_202)))
(let ((.def_197 (* (- 1) main.w.next)))
(let ((.def_198 (+ main.w .def_197)))
(let ((.def_201 (= .def_198 (- 10))))
(let ((.def_204 (and .def_201 .def_203)))
(let ((.def_205 (and .def_43 .def_204)))
(let ((.def_206 (and .def_47 .def_205)))
(let ((.def_207 (and .def_51 .def_206)))
(let ((.def_194 (and .s.3 .def_87)))
(let ((.def_195 (and .def_20 .def_194)))
(let ((.def_196 (not .def_195)))
(let ((.def_208 (or .def_196 .def_207)))
(let ((.def_378 (and .def_208 .def_377)))
(let ((.def_190 (and .s.3 .def_73)))
(let ((.def_191 (and .def_20 .def_190)))
(let ((.def_192 (not .def_191)))
(let ((.def_193 (or .def_123 .def_192)))
(let ((.def_379 (and .def_193 .def_378)))
(let ((.def_185 (and .def_39 .def_184)))
(let ((.def_186 (and .def_43 .def_185)))
(let ((.def_187 (and .def_47 .def_186)))
(let ((.def_188 (and .def_51 .def_187)))
(let ((.def_181 (and .s.3 .def_56)))
(let ((.def_182 (and .def_20 .def_181)))
(let ((.def_183 (not .def_182)))
(let ((.def_189 (or .def_183 .def_188)))
(let ((.def_380 (and .def_189 .def_379)))
(let ((.def_175 (and .s.4.next .def_66)))
(let ((.def_176 (and .def_39 .def_175)))
(let ((.def_177 (and .def_43 .def_176)))
(let ((.def_178 (and .def_47 .def_177)))
(let ((.def_179 (and .def_51 .def_178)))
(let ((.def_167 (<= main.z main.x)))
(let ((.def_165 (<= main.w main.y)))
(let ((.def_166 (not .def_165)))
(let ((.def_168 (and .def_166 .def_167)))
(let ((.def_163 (and .s.3 .def_23)))
(let ((.def_164 (and .def_20 .def_163)))
(let ((.def_173 (and .def_164 .def_168)))
(let ((.def_174 (not .def_173)))
(let ((.def_180 (or .def_174 .def_179)))
(let ((.def_381 (and .def_180 .def_380)))
(let ((.def_169 (not .def_168)))
(let ((.def_170 (and .def_164 .def_169)))
(let ((.def_171 (not .def_170)))
(let ((.def_131 (and .s.4.next .def_130)))
(let ((.def_132 (and .def_39 .def_131)))
(let ((.def_133 (and .def_43 .def_132)))
(let ((.def_134 (and .def_47 .def_133)))
(let ((.def_135 (and .def_51 .def_134)))
(let ((.def_172 (or .def_135 .def_171)))
(let ((.def_382 (and .def_172 .def_381)))
(let ((.def_156 (and .def_33 .def_155)))
(let ((.def_157 (and .s.4.next .def_156)))
(let ((.def_153 (+ main.x main.x.next)))
(let ((.def_154 (= .def_153 0)))
(let ((.def_158 (and .def_154 .def_157)))
(let ((.def_159 (and .def_39 .def_158)))
(let ((.def_160 (and .def_47 .def_159)))
(let ((.def_161 (and .def_51 .def_160)))
(let ((.def_151 (and .s.4 .def_150)))
(let ((.def_152 (not .def_151)))
(let ((.def_162 (or .def_152 .def_161)))
(let ((.def_383 (and .def_162 .def_382)))
(let ((.def_143 (and .s.4.next .def_142)))
(let ((.def_139 (+ main.y main.y.next)))
(let ((.def_140 (= .def_139 0)))
(let ((.def_144 (and .def_140 .def_143)))
(let ((.def_145 (and .def_39 .def_144)))
(let ((.def_146 (and .def_43 .def_145)))
(let ((.def_147 (and .def_51 .def_146)))
(let ((.def_137 (and .def_18 .s.4)))
(let ((.def_138 (not .def_137)))
(let ((.def_148 (or .def_138 .def_147)))
(let ((.def_384 (and .def_148 .def_383)))
(let ((.def_127 (and .s.4 .def_126)))
(let ((.def_128 (not .def_127)))
(let ((.def_136 (or .def_128 .def_135)))
(let ((.def_385 (and .def_136 .def_384)))
(let ((.def_116 (and .s.4 .def_115)))
(let ((.def_117 (not .def_116)))
(let ((.def_124 (or .def_117 .def_123)))
(let ((.def_386 (and .def_124 .def_385)))
(let ((.def_92 (* (- 1) main.y)))
(let ((.def_94 (* 3 main.x)))
(let ((.def_97 (+ .def_94 .def_92)))
(let ((.def_98 (<= 0 .def_97)))
(let ((.def_110 (not .def_98)))
(let ((.def_89 (and .s.4 .def_88)))
(let ((.def_111 (and .def_89 .def_110)))
(let ((.def_112 (not .def_111)))
(let ((.def_36 (and .def_34 .s.4.next)))
(let ((.def_40 (and .def_36 .def_39)))
(let ((.def_44 (and .def_40 .def_43)))
(let ((.def_48 (and .def_44 .def_47)))
(let ((.def_52 (and .def_48 .def_51)))
(let ((.def_113 (or .def_52 .def_112)))
(let ((.def_387 (and .def_113 .def_386)))
(let ((.def_104 (and .s.4.next .def_103)))
(let ((.def_105 (and .def_39 .def_104)))
(let ((.def_106 (and .def_43 .def_105)))
(let ((.def_107 (and .def_47 .def_106)))
(let ((.def_108 (and .def_51 .def_107)))
(let ((.def_99 (and .def_89 .def_98)))
(let ((.def_100 (not .def_99)))
(let ((.def_109 (or .def_100 .def_108)))
(let ((.def_388 (and .def_109 .def_387)))
(let ((.def_80 (and .s.4.next .def_79)))
(let ((.def_81 (and .def_39 .def_80)))
(let ((.def_82 (and .def_43 .def_81)))
(let ((.def_83 (and .def_47 .def_82)))
(let ((.def_84 (and .def_51 .def_83)))
(let ((.def_75 (and .s.4 .def_74)))
(let ((.def_76 (not .def_75)))
(let ((.def_85 (or .def_76 .def_84)))
(let ((.def_389 (and .def_85 .def_388)))
(let ((.def_58 (and .s.4 .def_57)))
(let ((.def_59 (not .def_58)))
(let ((.def_72 (or .def_59 .def_71)))
(let ((.def_390 (and .def_72 .def_389)))
(let ((.def_25 (and .s.4 .def_24)))
(let ((.def_26 (not .def_25)))
(let ((.def_53 (or .def_26 .def_52)))
(let ((.def_391 (and .def_53 .def_390)))
.def_391)))))))))))))))))))))))))))))))))))))))))))))))))))))))))))))))))))))))))))))))))))))))))))))))))))))))))))))))))))))))))))))))))))))))))))))))))))))))))))))))))))))))))))))))))))))))))))))))))))))))))))))))))))))))))))))))))))))))))))))))))))))))))))))))))))))))))))))))))))))))))))))))))))))))))))))))))))))))))))))))))))))))))))))))))))))))))))))))))) (state |.s.1.next| |.s.0.next| |.s.2.next| |.s.3.next| |.s.4.next| |main.w.next| |main.x.next| |main.y.next| |main.z.next|))))
(assert (forall ((|.s.2| Bool) (|.s.3| Bool) (|.s.0| Bool) (|.s.1| Bool) (|.s.0.next| Bool) (|.s.1.next| Bool) (|.s.2.next| Bool) (|.s.3.next| Bool) (|.s.4.next| Bool) (|main.w.next| Int) (|main.w| Int) (|main.x.next| Int) (|main.x| Int) (|main.y.next| Int) (|main.y| Int) (|main.z.next| Int) (|main.z| Int) (|.inputVar.0| Int) (|.s.4| Bool)) (=> (state |.s.1| |.s.0| |.s.2| |.s.3| |.s.4| |main.w| |main.x| |main.y| |main.z|) (let ((.def_22 (and .s.1 .s.0)))
(let ((.def_23 (and .s.2 .def_22)))
(let ((.def_17 (not .s.3)))
(let ((.def_24 (and .def_17 .def_23)))
(let ((.def_25 (and .s.4 .def_24)))
(let ((.def_26 (not .def_25)))
.def_26)))))))))
(check-sat)
